c SAT problem
p wcnf 598 2354
1 -60 3150 0
1 60 3120 0
1 75 -76 0
1 75 -3165 0
1 75 3135 0
1 -90 105 0
1 -90 -3150 0
1 -90 -3060 0
1 90 -3165 0
1 -105 -3075 0
1 -105 -3150 0
1 105 3060 0
1 105 -3135 0
1 -3120 -165 0
1 3120 105 0
1 3120 150 0
1 3120 90 0
1 3120 60 0
1 3120 -3135 0
1 -3135 75 0
1 3135 -181 0
1 3135 120 0
1 3135 -60 0
1 3150 -196 0
1 -3150 75 0
1 -3150 -181 0
1 -3150 -90 0
1 3165 196 0
1 -3165 -166 0
1 -3165 90 0
1 -120 135 0
1 120 -3120 0
1 120 -3060 0
1 -120 -3135 0
1 135 3135 0
1 -150 3090 0
1 -150 151 0
1 -150 3000 0
1 165 150 0
1 165 3030 0
1 3060 -225 0
1 3060 -3075 0
1 -3060 165 0
1 -3060 105 0
1 -3060 -210 0
1 3075 -165 0
1 3075 -105 0
1 -3075 -240 0
1 -3075 -180 0
1 -3090 -165 0
1 -3090 135 0
1 3090 -181 0
1 -3105 240 0
1 3105 120 0
1 -180 195 0
1 180 181 0
1 -180 -3030 0
1 -180 -3000 0
1 -195 3045 0
1 195 -3060 0
1 210 3060 0
1 225 226 0
1 225 3045 0
1 -225 3015 0
1 3000 -225 0
1 3000 195 0
1 -3000 -165 0
1 -3000 -150 0
1 3015 -195 0
1 -3015 165 0
1 -3015 -180 0
1 3030 -225 0
1 -3030 270 0
1 3030 -240 0
1 3030 150 0
1 -3030 -3031 0
1 3030 285 0
1 -3030 255 0
1 -3045 225 0
1 3045 -195 0
1 3045 210 0
1 -3045 3030 0
1 3045 315 0
1 61 -3315 0
1 61 -60 0
1 76 -3330 0
1 91 -3330 0
1 -91 3315 0
1 91 -3255 0
1 106 -3330 0
1 106 107 0
1 106 -3315 0
1 -106 -3255 0
1 3300 182 0
1 3300 91 0
1 -3315 -166 0
1 3315 -3316 0
1 -3315 182 0
1 3315 61 0
1 -3330 152 0
1 -3345 -3330 0
1 3345 -197 0
1 -3345 -106 0
1 -3345 -76 0
1 121 -3270 0
1 -121 -120 0
1 136 3300 0
1 -136 -135 0
1 136 3240 0
1 -136 -3150 0
1 151 -3300 0
1 -166 3210 0
1 166 -3180 0
1 3240 166 0
1 -3240 106 0
1 3240 -211 0
1 -3240 121 0
1 3255 -196 0
1 3255 -166 0
1 3255 136 0
1 -3255 241 0
1 3255 -181 0
1 -3270 227 0
1 3270 -136 0
1 3270 212 0
1 3270 -121 0
1 -3285 -166 0
1 -3285 -106 0
1 -3285 151 0
1 181 3210 0
1 181 3090 0
1 181 180 0
1 -181 3255 0
1 196 197 0
1 -196 -3180 0
1 196 -3195 0
1 -211 3105 0
1 -211 -3180 0
1 -211 -3225 0
1 226 3121 0
1 226 -3195 0
1 -3180 196 0
1 -3180 166 0
1 -3195 -270 0
1 -3195 -181 0
1 3195 151 0
1 3195 -285 0
1 -3210 226 0
1 -3210 3211 0
1 3210 -241 0
1 3210 -211 0
1 -3210 316 0
1 -3225 196 0
1 3225 -241 0
1 3225 181 0
1 3225 3226 0
1 240 3151 0
1 240 241 0
1 240 -3166 0
1 -240 255 0
1 255 3105 0
1 -255 3136 0
1 255 3180 0
1 255 3151 0
1 -255 -3090 0
1 255 -3030 0
1 270 -3136 0
1 270 3061 0
1 270 -285 0
1 -270 3166 0
1 285 -3106 0
1 285 -3045 0
1 285 3180 0
1 285 3195 0
1 3121 -330 0
1 -3121 -240 0
1 3121 -3120 0
1 3121 211 0
1 -3121 376 0
1 3121 285 0
1 -3136 226 0
1 3136 -240 0
1 -3136 315 0
1 3136 285 0
1 -3151 -376 0
1 -3151 -316 0
1 3151 285 0
1 -3166 -270 0
1 -300 -3076 0
1 -300 3000 0
1 -315 3076 0
1 -315 -3091 0
1 315 3000 0
1 -330 3136 0
1 -330 3076 0
1 330 3121 0
1 -330 -3091 0
1 -330 3031 0
1 -345 -3076 0
1 345 3091 0
1 -345 -3031 0
1 -345 -346 0
1 3061 3076 0
1 -3061 -390 0
1 3061 -360 0
1 3061 -270 0
1 -3061 -3060 0
1 -3061 3062 0
1 3061 315 0
1 3076 3075 0
1 3076 -420 0
1 -3076 -390 0
1 -3076 -330 0
1 -3076 270 0
1 -3076 -345 0
1 -3076 -315 0
1 3076 285 0
1 3091 -391 0
1 -3091 330 0
1 -3091 300 0
1 3091 3092 0
1 -3091 -406 0
1 -3091 -315 0
1 3091 285 0
1 3106 -3107 0
1 3106 406 0
1 3106 376 0
1 360 -3046 0
1 -360 -361 0
1 -360 3031 0
1 -375 -3076 0
1 375 360 0
1 -375 -3016 0
1 375 -3031 0
1 375 -3001 0
1 -390 -3076 0
1 390 -3016 0
1 -390 405 0
1 390 -3061 0
1 405 3046 0
1 -405 -406 0
1 3001 375 0
1 -3001 3002 0
1 -3016 3015 0
1 3016 3017 0
1 -3031 -480 0
1 3031 -465 0
1 -3031 3030 0
1 3031 3032 0
1 3046 3045 0
1 -62 3510 0
1 -77 76 0
1 -77 -3480 0
1 92 -107 0
1 92 -3435 0
1 -92 -3480 0
1 92 -3450 0
1 -92 -91 0
1 -92 -3420 0
1 107 -3525 0
1 107 -3495 0
1 107 3435 0
1 -107 3420 0
1 3480 137 0
1 3480 -183 0
1 -3480 -122 0
1 -3495 -152 0
1 3495 -122 0
1 3510 3525 0
1 -3510 107 0
1 3510 -123 0
1 3510 92 0
1 3510 62 0
1 3525 -198 0
1 3525 168 0
1 3525 -92 0
1 -3525 62 0
1 122 137 0
1 -122 3345 0
1 -122 -121 0
1 122 123 0
1 -137 -3330 0
1 137 3495 0
1 137 3465 0
1 137 122 0
1 137 3420 0
1 152 3495 0
1 167 -3360 0
1 167 3435 0
1 167 -3375 0
1 167 -3450 0
1 3420 137 0
1 3420 -92 0
1 3435 257 0
1 -3435 -227 0
1 -3435 167 0
1 3435 107 0
1 3435 -152 0
1 3435 92 0
1 3450 228 0
1 -3450 137 0
1 3450 3465 0
1 3450 -242 0
1 -3450 -152 0
1 -3450 -92 0
1 3465 -228 0
1 -3465 -242 0
1 -3465 -92 0
1 182 -3330 0
1 182 -3270 0
1 -182 -3285 0
1 182 3420 0
1 197 3300 0
1 -197 3270 0
1 -197 -198 0
1 197 -3405 0
1 -197 -3345 0
1 197 -182 0
1 197 3420 0
1 -212 3360 0
1 -212 -227 0
1 212 3405 0
1 -212 3346 0
1 -212 -3316 0
1 -212 3285 0
1 212 -213 0
1 212 3420 0
1 -212 3390 0
1 -227 226 0
1 -227 -3270 0
1 227 -3405 0
1 227 -3375 0
1 227 -212 0
1 3360 167 0
1 3360 3375 0
1 -3360 -241 0
1 -3360 -317 0
1 -3375 -256 0
1 -3375 -167 0
1 3375 -302 0
1 3375 271 0
1 -3375 -241 0
1 3375 152 0
1 -3375 -286 0
1 -3390 -227 0
1 3390 302 0
1 3390 242 0
1 -3390 212 0
1 3390 317 0
1 -3405 257 0
1 3405 -227 0
1 -3405 242 0
1 3405 -212 0
1 241 -3360 0
1 -241 3301 0
1 -241 -3270 0
1 241 240 0
1 -256 -3375 0
1 256 3285 0
1 256 3255 0
1 -271 272 0
1 -271 3346 0
1 -271 -3256 0
1 -286 -3301 0
1 286 3241 0
1 3301 -227 0
1 -3301 3300 0
1 3301 301 0
1 -3301 316 0
1 3301 -286 0
1 -3316 -3301 0
1 3316 -331 0
1 3316 -346 0
1 3331 256 0
1 -3331 362 0
1 -3331 -302 0
1 3331 271 0
1 -3331 -241 0
1 -3331 3346 0
1 -3331 -317 0
1 3346 -256 0
1 3346 227 0
1 3346 362 0
1 3346 -302 0
1 3346 -271 0
1 -3346 241 0
1 3346 3345 0
1 -3346 286 0
1 -301 -3316 0
1 301 3225 0
1 316 -3271 0
1 -316 -3180 0
1 316 3151 0
1 316 -3316 0
1 -316 -3256 0
1 -316 -3225 0
1 316 -3166 0
1 -331 -3301 0
1 -331 -3211 0
1 -331 332 0
1 331 346 0
1 -331 3196 0
1 -346 -3301 0
1 346 3181 0
1 -3241 421 0
1 -3241 3242 0
1 3241 331 0
1 -3241 -376 0
1 3256 391 0
1 -3256 406 0
1 -3256 -3255 0
1 3256 316 0
1 -3271 3272 0
1 -3271 -3286 0
1 -3271 -407 0
1 -3271 -377 0
1 -3271 316 0
1 -3286 -421 0
1 -3286 362 0
1 -3286 -331 0
1 3286 -346 0
1 361 3136 0
1 361 362 0
1 -361 3121 0
1 -376 -3211 0
1 376 3256 0
1 -376 377 0
1 376 3226 0
1 376 -3196 0
1 391 390 0
1 -391 -392 0
1 -391 -3241 0
1 391 -3152 0
1 391 -3226 0
1 391 -3196 0
1 391 -3167 0
1 -406 3137 0
1 -406 -3106 0
1 406 3241 0
1 406 3181 0
1 406 405 0
1 406 -3256 0
1 -3181 420 0
1 3181 3182 0
1 -3181 -465 0
1 -3181 376 0
1 3181 3196 0
1 -3196 -450 0
1 -3196 361 0
1 -3196 3181 0
1 3196 -435 0
1 -3196 -406 0
1 -3196 376 0
1 -3196 346 0
1 -3196 3197 0
1 3211 481 0
1 -3211 -451 0
1 3211 -3226 0
1 3211 -3210 0
1 3211 -331 0
1 -3211 436 0
1 3211 406 0
1 3226 481 0
1 -3226 421 0
1 3226 -466 0
1 3226 -3225 0
1 420 -3106 0
1 -420 -3061 0
1 420 -3196 0
1 435 3076 0
1 435 3181 0
1 -435 3152 0
1 -435 3196 0
1 -450 3107 0
1 -450 -3181 0
1 -450 3122 0
1 450 -3062 0
1 465 3107 0
1 465 3152 0
1 465 466 0
1 -465 3122 0
1 -3122 -465 0
1 3122 3121 0
1 -3122 541 0
1 -3137 -3136 0
1 -3137 556 0
1 -3137 525 0
1 3137 495 0
1 3137 465 0
1 -3137 -3122 0
1 3137 406 0
1 3137 510 0
1 3152 481 0
1 -3152 -450 0
1 3152 420 0
1 -3152 526 0
1 -3152 -435 0
1 -3152 -3167 0
1 -3167 -556 0
1 -3167 526 0
1 3167 496 0
1 480 481 0
1 -480 -3107 0
1 -480 -495 0
1 -480 -3092 0
1 495 -480 0
1 -495 -3046 0
1 495 3016 0
1 495 3092 0
1 495 -3001 0
1 510 -3077 0
1 -510 3092 0
1 525 -3047 0
1 -525 3032 0
1 525 -3002 0
1 -3062 450 0
1 -3062 615 0
1 3062 525 0
1 3062 -510 0
1 3077 -480 0
1 -3077 3078 0
1 -3077 -465 0
1 3077 -600 0
1 3092 -450 0
1 3092 3107 0
1 -3092 -615 0
1 -3092 -465 0
1 -3092 -3093 0
1 -3092 510 0
1 -3107 480 0
1 -3107 3108 0
1 3107 -495 0
1 3107 465 0
1 -3107 541 0
1 540 3047 0
1 -540 555 0
1 -540 3032 0
1 555 3017 0
1 570 3077 0
1 -585 3002 0
1 -585 3047 0
1 -3017 3002 0
1 -3017 675 0
1 3017 -3016 0
1 3017 -3018 0
1 -3017 525 0
1 -3032 675 0
1 3032 -3031 0
1 3032 510 0
1 -3047 645 0
1 3047 -615 0
1 3047 -3048 0
1 -3047 585 0
1 -3047 -660 0
1 3047 -3032 0
1 3047 -600 0
1 -63 64 0
1 63 3690 0
1 63 78 0
1 -63 3675 0
1 63 62 0
1 -78 -3660 0
1 78 -3705 0
1 78 3675 0
1 93 3690 0
1 -93 -3630 0
1 108 -107 0
1 108 109 0
1 -108 -3615 0
1 3660 -199 0
1 3660 184 0
1 -3660 153 0
1 3660 -3675 0
1 3675 78 0
1 3675 184 0
1 3675 -3676 0
1 3675 63 0
1 3690 -184 0
1 -3705 -78 0
1 3705 3706 0
1 -123 -3600 0
1 -138 -137 0
1 -138 -3660 0
1 -138 -3630 0
1 -138 -3675 0
1 -138 3645 0
1 -153 3555 0
1 153 -3660 0
1 -153 -3600 0
1 153 3540 0
1 153 3675 0
1 153 -3645 0
1 -168 153 0
1 3600 -228 0
1 -3600 198 0
1 -3600 108 0
1 3600 -243 0
1 3615 -228 0
1 3615 -108 0
1 -3615 243 0
1 -3615 -93 0
1 3630 168 0
1 3630 123 0
1 -3630 -93 0
1 3645 -168 0
1 3645 -184 0
1 3645 93 0
1 -3645 -3646 0
1 183 -3570 0
1 183 -3540 0
1 183 182 0
1 198 -183 0
1 -198 -3615 0
1 -213 -3585 0
1 -213 228 0
1 -213 -3600 0
1 -213 212 0
1 -213 3481 0
1 -228 -3585 0
1 228 3496 0
1 228 -3465 0
1 -228 -3540 0
1 -228 213 0
1 -228 3511 0
1 228 -3615 0
1 -3540 303 0
1 3540 272 0
1 3540 -318 0
1 3555 3556 0
1 3555 287 0
1 -3570 -198 0
1 3570 168 0
1 3570 -303 0
1 -3570 243 0
1 3570 -213 0
1 3585 288 0
1 3585 -273 0
1 3585 -213 0
1 3585 153 0
1 3585 -318 0
1 242 -3465 0
1 -242 -3540 0
1 242 3390 0
1 257 256 0
1 257 3435 0
1 257 3420 0
1 272 -3526 0
1 -272 3496 0
1 272 3540 0
1 272 -3481 0
1 -272 3421 0
1 287 288 0
1 -287 -3466 0
1 -287 -3436 0
1 -287 -3405 0
1 287 -272 0
1 287 3511 0
1 287 286 0
1 -3481 257 0
1 3481 363 0
1 -3496 -3495 0
1 -3496 363 0
1 3496 -332 0
1 -3511 -213 0
1 3511 -348 0
1 -3511 -318 0
1 -3526 -333 0
1 302 3405 0
1 -302 -3346 0
1 -302 -3390 0
1 317 -3360 0
1 -317 -3331 0
1 -317 -3466 0
1 -317 3375 0
1 317 -3481 0
1 -317 3421 0
1 -317 318 0
1 -332 3361 0
1 332 -3466 0
1 332 3436 0
1 -332 -333 0
1 332 -3421 0
1 347 -3436 0
1 347 3406 0
1 -347 3451 0
1 -3421 392 0
1 3421 -3436 0
1 3421 302 0
1 -3421 -272 0
1 3421 -3420 0
1 -3436 392 0
1 -3436 -407 0
1 3451 -422 0
1 3451 3466 0
1 3451 -3450 0
1 3466 -3465 0
1 3466 3467 0
1 3466 -302 0
1 3466 408 0
1 3466 -378 0
1 -3466 317 0
1 -3466 287 0
1 -362 3271 0
1 -362 -361 0
1 362 -377 0
1 -362 -3421 0
1 -362 3391 0
1 -377 -3361 0
1 377 -3271 0
1 -377 -362 0
1 -377 -3436 0
1 -377 -3376 0
1 -377 -3346 0
1 -377 -3316 0
1 377 -3286 0
1 392 3376 0
1 392 3421 0
1 -407 392 0
1 -407 3376 0
1 -407 3347 0
1 -407 3286 0
1 -3361 482 0
1 -3361 3362 0
1 3361 392 0
1 -3361 362 0
1 3361 -497 0
1 3361 436 0
1 3376 482 0
1 3376 -421 0
1 3376 -392 0
1 3376 -436 0
1 3376 -407 0
1 -3391 3406 0
1 -3391 -497 0
1 3391 467 0
1 -3391 407 0
1 -3391 -3390 0
1 -3406 452 0
1 3406 422 0
1 3406 -3405 0
1 -3406 3407 0
1 -3406 407 0
1 3406 377 0
1 421 3332 0
1 421 -422 0
1 436 -3332 0
1 -436 3271 0
1 436 -435 0
1 -451 -3347 0
1 -451 3226 0
1 466 451 0
1 -466 3226 0
1 3302 421 0
1 -3302 -392 0
1 -3317 3302 0
1 -3317 -526 0
1 3317 -436 0
1 -3317 -3316 0
1 -3317 -511 0
1 3332 -482 0
1 3332 -392 0
1 -3332 557 0
1 -3332 527 0
1 3332 -466 0
1 -3347 -451 0
1 3347 392 0
1 3347 -3348 0
1 -481 -482 0
1 481 3211 0
1 -496 -3272 0
1 -496 -3181 0
1 496 -3152 0
1 -496 497 0
1 496 -3317 0
1 496 3257 0
1 -511 512 0
1 511 -3212 0
1 -526 -3272 0
1 -526 -525 0
1 526 -3257 0
1 -526 -3227 0
1 -526 -3197 0
1 -3242 -526 0
1 3242 -571 0
1 3242 541 0
1 -3257 481 0
1 -3257 -616 0
1 3257 -586 0
1 -3257 3242 0
1 3257 -496 0
1 -3257 -3256 0
1 3257 511 0
1 -3272 -496 0
1 -3272 466 0
1 3272 601 0
1 3272 -572 0
1 -3287 587 0
1 3287 557 0
1 3287 496 0
1 541 -3242 0
1 -541 -3092 0
1 -541 -540 0
1 -541 -3197 0
1 -541 -3167 0
1 556 -3122 0
1 556 3257 0
1 571 -3138 0
1 571 -3107 0
1 -571 3182 0
1 571 -3123 0
1 -571 -570 0
1 -571 572 0
1 571 3197 0
1 586 3242 0
1 586 3227 0
1 -3182 -615 0
1 -3182 3181 0
1 -3182 -3183 0
1 3182 3197 0
1 3197 645 0
1 -3197 526 0
1 3197 600 0
1 3197 571 0
1 -3197 541 0
1 -3197 -3198 0
1 -3212 3213 0
1 -3212 526 0
1 -3212 -661 0
1 -3212 541 0
1 3227 676 0
1 3227 601 0
1 3227 511 0
1 -600 -3107 0
1 -600 -3092 0
1 -615 3168 0
1 615 3138 0
1 -615 3077 0
1 -615 3062 0
1 -615 3032 0
1 -630 3138 0
1 -630 645 0
1 630 3047 0
1 630 -631 0
1 -630 -3123 0
1 -645 -646 0
1 -645 3153 0
1 -645 3197 0
1 3123 -705 0
1 3123 -645 0
1 -3123 -615 0
1 -3138 3139 0
1 -3138 -645 0
1 -3138 586 0
1 3138 -690 0
1 3138 660 0
1 -3138 -571 0
1 3153 -736 0
1 -3153 -706 0
1 3153 615 0
1 3153 -3152 0
1 -3153 3154 0
1 -3153 630 0
1 3168 721 0
1 -3168 661 0
1 3168 3167 0
1 -660 -3138 0
1 -660 -675 0
1 660 -3078 0
1 660 3002 0
1 675 -676 0
1 -675 -3063 0
1 690 3108 0
1 705 706 0
1 -705 -3138 0
1 -705 -3048 0
1 -705 -3123 0
1 705 -3063 0
1 -705 -3033 0
1 -3063 -780 0
1 -3063 630 0
1 -3063 -3062 0
1 3063 -795 0
1 -3078 3077 0
1 -3078 630 0
1 3078 3063 0
1 3093 -3108 0
1 -3093 690 0
1 -3093 -630 0
1 3093 795 0
1 3108 675 0
1 -3108 -3109 0
1 -3108 -630 0
1 720 721 0
1 -720 3063 0
1 720 -3003 0
1 735 -3048 0
1 735 720 0
1 750 3018 0
1 750 -3003 0
1 765 3048 0
1 -765 750 0
1 -765 3003 0
1 -3003 -3018 0
1 3003 720 0
1 -3003 -855 0
1 -3003 -765 0
1 3018 705 0
1 -3018 -840 0
1 -3018 3017 0
1 3018 3019 0
1 -3018 765 0
1 -3033 705 0
1 3033 810 0
1 -3033 -795 0
1 3048 840 0
1 3048 810 0
1 3048 -750 0
1 3048 795 0
1 3048 -765 0
1 -3048 -735 0
1 -64 -79 0
1 64 3870 0
1 -79 -64 0
1 79 3840 0
1 79 -3885 0
1 -79 3855 0
1 79 -3870 0
1 94 -3840 0
1 94 -3870 0
1 -109 3885 0
1 -109 3855 0
1 -3840 64 0
1 3840 3841 0
1 -3840 -139 0
1 3840 -94 0
1 -3855 169 0
1 -3870 -3885 0
1 -3870 -3871 0
1 124 139 0
1 -124 -3855 0
1 -124 -3795 0
1 124 3705 0
1 154 -3810 0
1 -154 3750 0
1 -154 -3690 0
1 154 -3855 0
1 154 -3705 0
1 -154 3825 0
1 -154 -3735 0
1 169 3810 0
1 169 -3795 0
1 3780 -259 0
1 -3780 229 0
1 3780 -199 0
1 -3780 -169 0
1 -3780 3795 0
1 3795 214 0
1 3795 -184 0
1 -3795 94 0
1 3810 -139 0
1 -3825 -109 0
1 3825 154 0
1 -3825 -124 0
1 -184 3780 0
1 -184 3720 0
1 -184 -3765 0
1 199 -198 0
1 199 3660 0
1 199 -3630 0
1 -199 -3795 0
1 -199 -3765 0
1 199 184 0
1 214 3780 0
1 -214 3765 0
1 229 -228 0
1 -229 3780 0
1 -229 -3691 0
1 -229 -3661 0
1 229 -3630 0
1 -229 3735 0
1 229 -3676 0
1 -3720 -199 0
1 -3720 -319 0
1 3735 184 0
1 -3735 154 0
1 3750 259 0
1 -3750 -244 0
1 -3750 214 0
1 3750 184 0
1 3765 -304 0
1 3765 -184 0
1 -243 3691 0
1 -243 3706 0
1 258 257 0
1 -258 259 0
1 258 3661 0
1 -258 3735 0
1 258 -3645 0
1 273 3585 0
1 273 -3616 0
1 -273 3720 0
1 273 3661 0
1 273 -3601 0
1 -273 -274 0
1 273 3676 0
1 -288 3720 0
1 -288 -3706 0
1 288 3646 0
1 3661 229 0
1 -3661 3660 0
1 -3661 -303 0
1 3661 -3662 0
1 3661 -243 0
1 -3661 214 0
1 -3661 318 0
1 3676 -258 0
1 3676 273 0
1 -3676 -214 0
1 -3676 -3675 0
1 3676 -318 0
1 3691 364 0
1 3691 273 0
1 -3691 243 0
1 -3691 214 0
1 -3691 379 0
1 -3706 -229 0
1 3706 -3691 0
1 3706 -334 0
1 -3706 319 0
1 -303 -3570 0
1 -318 3616 0
1 318 -3555 0
1 -318 -3526 0
1 318 3661 0
1 318 -3511 0
1 318 -3676 0
1 -333 -3616 0
1 333 -3586 0
1 333 3646 0
1 333 -3676 0
1 -348 3526 0
1 -348 3661 0
1 -348 -347 0
1 -348 -3676 0
1 348 -3646 0
1 -3601 -333 0
1 3601 3600 0
1 -3601 -408 0
1 3601 -348 0
1 3616 -3617 0
1 -3616 -393 0
1 3616 -438 0
1 -3616 378 0
1 -3616 -348 0
1 3616 -3615 0
1 3631 288 0
1 -3631 -394 0
1 -3631 364 0
1 -3631 -3630 0
1 3631 273 0
1 3646 -288 0
1 3646 423 0
1 -3646 -333 0
1 3646 -303 0
1 3646 273 0
1 3646 379 0
1 3646 -348 0
1 -3646 3645 0
1 -3646 -318 0
1 -363 3616 0
1 363 -3586 0
1 -363 -3526 0
1 -363 3496 0
1 -363 -3466 0
1 -363 -3541 0
1 363 3451 0
1 -378 3571 0
1 -378 3511 0
1 -378 377 0
1 393 3556 0
1 -393 3527 0
1 -393 -3497 0
1 -393 408 0
1 408 -3586 0
1 408 3601 0
1 408 -407 0
1 3541 -483 0
1 3541 -393 0
1 3541 -467 0
1 3541 -348 0
1 3556 -3555 0
1 -3556 422 0
1 -3556 -393 0
1 -3556 498 0
1 -3556 -437 0
1 3556 -408 0
1 -3571 3586 0
1 -3571 363 0
1 3571 3572 0
1 3586 -453 0
1 3586 -363 0
1 3586 333 0
1 3586 408 0
1 -3586 378 0
1 -3586 348 0
1 -422 421 0
1 -422 -3497 0
1 422 3436 0
1 -422 437 0
1 422 3451 0
1 437 -3436 0
1 437 -438 0
1 -437 -3512 0
1 -452 -453 0
1 -452 -3406 0
1 -452 -3512 0
1 452 3422 0
1 -452 -3391 0
1 467 3527 0
1 467 -3437 0
1 -467 -466 0
1 -467 -3391 0
1 -3482 422 0
1 -3482 -393 0
1 -3482 -3497 0
1 3482 -558 0
1 -3497 -422 0
1 -3497 -527 0
1 -3497 -467 0
1 3512 513 0
1 -3512 393 0
1 3512 -467 0
1 3512 -437 0
1 3512 3511 0
1 3512 3513 0
1 -3527 513 0
1 3527 -3526 0
1 -3527 558 0
1 -3527 498 0
1 -482 3361 0
1 -482 -3467 0
1 482 497 0
1 -482 3347 0
1 482 3482 0
1 497 3467 0
1 497 -496 0
1 497 -3376 0
1 512 3437 0
1 -512 527 0
1 527 -3497 0
1 527 -526 0
1 -527 3407 0
1 527 -528 0
1 -527 3347 0
1 -527 3482 0
1 -3422 -512 0
1 -3422 3437 0
1 3422 527 0
1 3422 572 0
1 -3422 -3421 0
1 -3437 -482 0
1 3437 -617 0
1 -3437 587 0
1 3437 3436 0
1 3437 527 0
1 3437 -602 0
1 3437 3422 0
1 3452 482 0
1 3452 -617 0
1 3452 3467 0
1 -3452 467 0
1 3467 -452 0
1 -3467 -617 0
1 3467 588 0
1 3467 -3468 0
1 -3467 558 0
1 -557 -3302 0
1 -557 558 0
1 -557 3422 0
1 572 -3377 0
1 572 571 0
1 -572 3422 0
1 -587 -3362 0
1 -587 -3272 0
1 -587 586 0
1 -587 -572 0
1 3362 677 0
1 -3362 587 0
1 -3362 -557 0
1 -3377 -512 0
1 -3377 -3362 0
1 3377 -587 0
1 -3377 527 0
1 -3377 3378 0
1 -3377 631 0
1 -3392 587 0
1 -3392 557 0
1 -3392 -662 0
1 -3392 632 0
1 3392 -3391 0
1 3407 -512 0
1 -3407 -3392 0
1 -3407 -647 0
1 3407 -3408 0
1 601 -3333 0
1 601 616 0
1 601 3242 0
1 601 -3212 0
1 601 3377 0
1 601 -3287 0
1 601 600 0
1 601 3257 0
1 -601 602 0
1 616 -3257 0
1 616 -3272 0
1 616 -3212 0
1 -616 -3318 0
1 -616 3287 0
1 631 -3333 0
1 -631 -646 0
1 -631 -3243 0
1 -631 -630 0
1 646 -3333 0
1 646 3243 0
1 -646 3212 0
1 646 3377 0
1 646 631 0
1 646 -3227 0
1 3303 3302 0
1 -3303 -722 0
1 -3303 -691 0
1 -3303 631 0
1 -3303 -572 0
1 3318 706 0
1 -3333 -737 0
1 -3333 -3332 0
1 3333 677 0
1 -3333 646 0
1 3333 616 0
1 3333 -587 0
1 3333 -662 0
1 3348 616 0
1 -3348 692 0
1 -3348 -631 0
1 -3348 -601 0
1 -661 -3168 0
1 -661 -3273 0
1 661 3243 0
1 -661 3288 0
1 661 -3258 0
1 -661 3227 0
1 676 3168 0
1 676 3243 0
1 676 3258 0
1 676 -3227 0
1 -676 3197 0
1 -691 706 0
1 -691 3273 0
1 -691 3153 0
1 691 -690 0
1 691 -692 0
1 691 -3288 0
1 -691 3258 0
1 706 3168 0
1 -706 707 0
1 -706 -3213 0
1 -706 3183 0
1 -706 691 0
1 -706 -3288 0
1 -3243 736 0
1 3243 781 0
1 -3243 -721 0
1 -3243 691 0
1 -3258 3243 0
1 -3258 -661 0
1 -3258 -796 0
1 3273 737 0
1 -3273 661 0
1 -3273 3288 0
1 -3273 -796 0
1 -3288 -706 0
1 3288 -646 0
1 -3288 752 0
1 -3288 722 0
1 -3288 631 0
1 -3288 -796 0
1 3288 767 0
1 721 -736 0
1 721 -3093 0
1 -721 -3228 0
1 -736 -3168 0
1 736 -737 0
1 736 3213 0
1 736 3198 0
1 751 750 0
1 -751 -3183 0
1 751 -3198 0
1 -751 -766 0
1 766 3108 0
1 -766 -3213 0
1 766 3154 0
1 -766 3124 0
1 -766 -3198 0
1 -766 767 0
1 -3183 736 0
1 -3183 780 0
1 3183 721 0
1 -3198 841 0
1 -3198 -780 0
1 3198 -691 0
1 3198 -856 0
1 -3198 825 0
1 3198 -3197 0
1 -3213 -811 0
1 3213 751 0
1 -3213 -796 0
1 -3228 841 0
1 -780 3139 0
1 -780 -3048 0
1 780 -781 0
1 780 3093 0
1 -780 -3033 0
1 780 795 0
1 -795 3169 0
1 -795 -3078 0
1 795 -3048 0
1 -795 -780 0
1 795 -3063 0
1 -795 796 0
1 810 3169 0
1 810 3048 0
1 -810 -3094 0
1 -825 -810 0
1 -3124 901 0
1 3124 -840 0
1 -3124 810 0
1 -3124 780 0
1 3124 916 0
1 3124 -885 0
1 -3124 766 0
1 -3139 -840 0
1 3139 -916 0
1 -3139 766 0
1 3154 871 0
1 -3154 810 0
1 -3154 -766 0
1 -3169 3168 0
1 -3169 -901 0
1 -3169 -871 0
1 3169 3154 0
1 -3169 916 0
1 3169 -886 0
1 3169 825 0
1 -855 3094 0
1 -855 -856 0
1 -855 -3003 0
1 -870 -3109 0
1 -870 871 0
1 870 3049 0
1 870 -3124 0
1 870 885 0
1 -885 -3139 0
1 -885 3094 0
1 -885 -3004 0
1 3079 -870 0
1 -3079 -3078 0
1 -3079 -945 0
1 -3079 825 0
1 3094 -810 0
1 -3109 -3108 0
1 -3109 870 0
1 3109 840 0
1 3109 -810 0
1 3109 -916 0
1 900 3019 0
1 915 -3019 0
1 -930 3049 0
1 930 -3034 0
1 945 -3079 0
1 -945 -3019 0
1 -945 -3004 0
1 3004 930 0
1 3004 870 0
1 3004 -945 0
1 3004 915 0
1 -3019 3004 0
1 -3019 3018 0
1 3019 -915 0
1 3034 3049 0
1 3034 945 0
1 -3034 -885 0
1 3034 3033 0
1 -3049 -930 0
1 244 -3810 0
1 -244 3780 0
1 -244 3750 0
1 -244 3765 0
1 259 -258 0
1 259 3825 0
1 -259 -3871 0
1 -274 3841 0
1 274 -3811 0
1 274 3750 0
1 274 273 0
1 -289 -3811 0
1 -289 -3886 0
1 289 3856 0
1 289 3826 0
1 -289 3796 0
1 -3841 3842 0
1 3841 -3856 0
1 3841 244 0
1 3841 -319 0
1 3856 289 0
1 3856 -3841 0
1 -3856 -3855 0
1 -3856 -304 0
1 -3856 -3857 0
1 3856 349 0
1 3871 289 0
1 -3871 259 0
1 -3871 274 0
1 -3871 -244 0
1 3886 244 0
1 -304 -3750 0
1 304 -3856 0
1 319 -3841 0
1 319 -3811 0
1 -319 3781 0
1 319 3691 0
1 319 3856 0
1 319 -3796 0
1 -319 -318 0
1 -334 -333 0
1 -334 -3856 0
1 -334 3736 0
1 349 -3781 0
1 349 334 0
1 -349 -3736 0
1 349 348 0
1 3781 -424 0
1 3781 -394 0
1 -3781 -364 0
1 3781 -274 0
1 -3781 -3796 0
1 3796 424 0
1 -3796 -3795 0
1 3796 379 0
1 -3796 319 0
1 -3826 -304 0
1 -3826 -3825 0
1 -3826 3827 0
1 -364 3751 0
1 364 3706 0
1 379 3751 0
1 379 364 0
1 -379 378 0
1 -379 -3646 0
1 394 -3781 0
1 -394 3662 0
1 394 -3766 0
1 -394 -3736 0
1 409 -3781 0
1 409 394 0
1 -409 3796 0
1 -3721 -484 0
1 -3721 438 0
1 -3721 3736 0
1 3721 379 0
1 3721 -349 0
1 3736 3721 0
1 -3736 -3737 0
1 3736 -499 0
1 -3736 -3735 0
1 -3736 409 0
1 -3751 454 0
1 3751 -3750 0
1 3751 3752 0
1 3751 334 0
1 3751 -3766 0
1 -3751 -349 0
1 -3766 -454 0
1 -3766 334 0
1 -3766 499 0
1 -3766 -469 0
1 -3766 409 0
1 3766 -349 0
1 423 3616 0
1 423 3586 0
1 -423 -424 0
1 423 -3721 0
1 -423 -438 0
1 -438 -3616 0
1 438 -3631 0
1 -438 439 0
1 -438 3646 0
1 453 -3586 0
1 453 452 0
1 -453 -3721 0
1 453 3692 0
1 -453 3662 0
1 -453 -3677 0
1 468 -453 0
1 -468 3721 0
1 -468 3692 0
1 -468 -3662 0
1 468 -467 0
1 468 -3571 0
1 468 469 0
1 468 -3707 0
1 -3662 483 0
1 3662 -394 0
1 3662 -3661 0
1 -3662 -559 0
1 -3662 -3677 0
1 3677 513 0
1 -3677 483 0
1 -3677 453 0
1 3677 -423 0
1 -3677 559 0
1 -3677 -468 0
1 -3677 409 0
1 -3692 484 0
1 3692 453 0
1 -3692 -394 0
1 -3692 3693 0
1 3692 -468 0
1 -3692 -3707 0
1 3707 544 0
1 3707 423 0
1 3707 -499 0
1 -3707 -409 0
1 -3707 3706 0
1 -3707 3708 0
1 -483 3571 0
1 -498 -3556 0
1 498 -3527 0
1 498 499 0
1 -513 -514 0
1 -513 3587 0
1 -513 3527 0
1 513 -3572 0
1 -513 3542 0
1 528 513 0
1 528 -3527 0
1 -528 -527 0
1 -528 -3632 0
1 528 529 0
1 3602 588 0
1 -3602 468 0
1 -3617 3618 0
1 3617 -483 0
1 3617 -588 0
1 -3617 -528 0
1 -3617 -498 0
1 -3632 -453 0
1 3647 513 0
1 -3647 -3648 0
1 3647 559 0
1 -3647 -528 0
1 3647 468 0
1 -3647 574 0
1 543 3557 0
1 -543 -3602 0
1 543 -3512 0
1 543 3482 0
1 558 -3497 0
1 558 559 0
1 -558 3482 0
1 573 -3617 0
1 -573 -3498 0
1 573 3467 0
1 -573 -3602 0
1 -573 -3483 0
1 573 572 0
1 588 -3617 0
1 588 3587 0
1 588 -589 0
1 588 3602 0
1 588 3542 0
1 588 -3483 0
1 3542 -3557 0
1 -3542 -647 0
1 -3542 617 0
1 -3542 -588 0
1 3542 558 0
1 3542 543 0
1 3557 -513 0
1 -3557 3556 0
1 3557 -558 0
1 3557 528 0
1 3572 528 0
1 -3572 663 0
1 -3572 -603 0
1 -3587 -513 0
1 3587 -663 0
1 3587 -603 0
1 -602 3528 0
1 602 -617 0
1 602 3498 0
1 602 3467 0
1 -617 3392 0
1 -617 -3407 0
1 617 -3483 0
1 632 -3557 0
1 632 647 0
1 -632 3498 0
1 632 -3407 0
1 -632 -631 0
1 -632 -3423 0
1 647 -648 0
1 -647 -3468 0
1 647 -3542 0
1 -647 -3453 0
1 -3483 -707 0
1 -3483 3482 0
1 3483 662 0
1 3483 -602 0
1 -3498 -723 0
1 3498 692 0
1 -3498 -3483 0
1 3513 738 0
1 3513 708 0
1 3513 -678 0
1 3513 -617 0
1 3513 3514 0
1 3528 -708 0
1 -3528 -678 0
1 -3528 -647 0
1 -3528 3527 0
1 -3528 588 0
1 -3528 3513 0
1 3528 573 0
1 662 -677 0
1 662 -3498 0
1 -662 663 0
1 -677 -3362 0
1 -677 -3333 0
1 677 -662 0
1 -677 3483 0
1 -692 -3393 0
1 692 3333 0
1 692 -3498 0
1 -692 3438 0
1 692 -691 0
1 -692 -693 0
1 692 3483 0
1 -692 -3453 0
1 -692 -3423 0
1 707 -3393 0
1 707 706 0
1 -707 3363 0
1 -707 -692 0
1 -707 3453 0
1 -3423 -3424 0
1 -3423 707 0
1 -3423 -632 0
1 3423 797 0
1 3438 -737 0
1 3438 -677 0
1 3438 3439 0
1 -3438 752 0
1 3438 -692 0
1 -3453 -768 0
1 3453 707 0
1 3453 677 0
1 -3453 -753 0
1 3453 -662 0
1 3468 3469 0
1 -3468 782 0
1 3468 -723 0
1 3468 662 0
1 722 -737 0
1 722 -3438 0
1 -722 -723 0
1 -737 738 0
1 -737 -3363 0
1 737 -3408 0
1 737 -3288 0
1 737 3423 0
1 -752 -3393 0
1 -752 3273 0
1 -767 -768 0
1 767 -3273 0
1 767 -3288 0
1 3363 737 0
1 -3363 3362 0
1 3363 -3364 0
1 -3363 -842 0
1 3363 811 0
1 3363 -752 0
1 -3363 3378 0
1 3363 -692 0
1 -3363 857 0
1 3363 -796 0
1 -3378 842 0
1 3378 -752 0
1 -3378 3379 0
1 -3393 3392 0
1 -3393 -707 0
1 3393 797 0
1 3408 -812 0
1 3408 722 0
1 -3408 -692 0
1 3408 857 0
1 3408 797 0
1 781 3304 0
1 781 -3273 0
1 781 -3243 0
1 781 3319 0
1 -796 3334 0
1 796 3213 0
1 796 3349 0
1 796 3258 0
1 796 795 0
1 -811 -3334 0
1 811 -3213 0
1 -811 -826 0
1 -811 3228 0
1 826 3363 0
1 -826 3289 0
1 -826 -3244 0
1 826 -827 0
1 -3304 -841 0
1 3304 917 0
1 -3319 -871 0
1 3319 826 0
1 3319 796 0
1 -3334 -872 0
1 -3334 -842 0
1 3334 887 0
1 -3334 -767 0
1 3349 -902 0
1 -3349 872 0
1 3349 -842 0
1 3349 -811 0
1 3349 -826 0
1 841 -3304 0
1 -841 842 0
1 841 3244 0
1 841 3213 0
1 -841 3183 0
1 841 3154 0
1 841 -3319 0
1 -841 -3259 0
1 856 3304 0
1 -856 -3259 0
1 856 -3228 0
1 871 -3169 0
1 -871 -3274 0
1 871 3244 0
1 871 3214 0
1 -871 -3184 0
1 871 -3289 0
1 886 -3169 0
1 -886 -871 0
1 886 -3184 0
1 886 885 0
1 3244 -931 0
1 3244 -886 0
1 3244 826 0
1 3259 946 0
1 3259 916 0
1 3274 902 0
1 -3274 811 0
1 3274 886 0
1 3274 -856 0
1 -3274 3289 0
1 -3289 -932 0
1 3289 -947 0
1 3289 917 0
1 -3289 886 0
1 3289 -3288 0
1 901 3139 0
1 901 -3109 0
1 -901 -3244 0
1 -901 3199 0
1 916 3169 0
1 916 -3109 0
1 916 3154 0
1 931 -932 0
1 931 3109 0
1 931 3244 0
1 931 946 0
1 -946 -931 0
1 -946 3244 0
1 -946 -947 0
1 946 3199 0
1 3184 931 0
1 -3184 -946 0
1 -3184 916 0
1 3199 -931 0
1 3214 3213 0
1 -3214 946 0
1 3214 -3229 0
1 -3229 -931 0
1 -3229 -3214 0
1 3229 916 0
1 -424 -3842 0
1 -424 -3811 0
1 -424 -3781 0
1 424 3751 0
1 -424 3887 0
1 -424 3826 0
1 424 -3796 0
1 439 -3811 0
1 439 -3781 0
1 -439 -424 0
1 439 -438 0
1 -454 3842 0
1 -454 -453 0
1 454 -3751 0
1 -454 3887 0
1 454 -3857 0
1 -469 3872 0
1 -469 -3812 0
1 469 -3782 0
1 -469 3857 0
1 -469 3766 0
1 -3842 -3841 0
1 -3842 -484 0
1 -3842 3843 0
1 3842 454 0
1 3857 -3842 0
1 -3857 -454 0
1 3857 424 0
1 3872 -469 0
1 3887 -454 0
1 -3887 -3888 0
1 3887 469 0
1 -3887 -439 0
1 484 -3782 0
1 -484 -3721 0
1 -484 -3766 0
1 484 3707 0
1 -499 3782 0
1 -499 -3827 0
1 -514 -3782 0
1 -514 3722 0
1 514 529 0
1 514 3767 0
1 -529 -3782 0
1 529 -3722 0
1 529 3707 0
1 3782 -619 0
1 -3782 -589 0
1 3782 -559 0
1 3782 469 0
1 -3797 454 0
1 3797 3796 0
1 -3797 -3798 0
1 3797 -604 0
1 -3797 -574 0
1 3812 499 0
1 -3812 469 0
1 -3827 -3812 0
1 3827 -454 0
1 3827 -469 0
1 544 -543 0
1 -544 3632 0
1 -559 -3782 0
1 -559 3677 0
1 -574 -589 0
1 574 3693 0
1 574 3797 0
1 574 573 0
1 574 -3647 0
1 -589 3782 0
1 -589 -3752 0
1 589 -3693 0
1 589 3737 0
1 -589 -574 0
1 -3722 -514 0
1 3722 3721 0
1 3722 -603 0
1 -3737 544 0
1 -3737 664 0
1 -3737 633 0
1 3737 3738 0
1 3737 -603 0
1 3752 514 0
1 -3752 3751 0
1 -3752 -3753 0
1 -3752 -589 0
1 -3752 -664 0
1 3752 604 0
1 3767 -649 0
1 3767 619 0
1 -3767 -3768 0
1 -3767 -559 0
1 3767 -3766 0
1 3767 634 0
1 603 -3708 0
1 603 -618 0
1 -603 3693 0
1 -603 -3632 0
1 -603 -3602 0
1 603 -3678 0
1 618 3587 0
1 -618 -3693 0
1 -618 -3663 0
1 618 603 0
1 -618 3708 0
1 618 3678 0
1 -633 3722 0
1 -633 -632 0
1 -633 -3708 0
1 -648 3648 0
1 -648 -647 0
1 648 3722 0
1 648 3663 0
1 -648 -3633 0
1 -648 -3708 0
1 648 -3678 0
1 3663 724 0
1 3678 739 0
1 3678 618 0
1 3678 -693 0
1 -3678 -603 0
1 3693 739 0
1 -3693 -709 0
1 -3693 648 0
1 3693 -3694 0
1 -3693 694 0
1 -3693 -574 0
1 -3708 -694 0
1 -3708 603 0
1 3708 574 0
1 663 3663 0
1 -663 -3542 0
1 -663 664 0
1 678 3618 0
1 678 3542 0
1 -678 663 0
1 -678 -3513 0
1 -693 708 0
1 -693 -3528 0
1 -693 3663 0
1 -693 -3633 0
1 693 3573 0
1 -693 -694 0
1 693 3543 0
1 693 -3678 0
1 708 -3558 0
1 -708 3663 0
1 708 3633 0
1 -708 -3543 0
1 -3603 768 0
1 -3603 -3604 0
1 -3603 663 0
1 -3603 -798 0
1 -3618 738 0
1 3618 3619 0
1 3618 678 0
1 -3618 648 0
1 3618 -3603 0
1 -3618 -633 0
1 3633 3648 0
1 3633 754 0
1 3648 -3649 0
1 -3648 -648 0
1 -3648 3633 0
1 3648 -633 0
1 3648 -3647 0
1 -723 738 0
1 -723 -3618 0
1 -723 722 0
1 -723 3603 0
1 -738 3498 0
1 738 3468 0
1 738 3603 0
1 738 -3573 0
1 -738 3513 0
1 -753 -768 0
1 753 -3588 0
1 753 -752 0
1 753 754 0
1 -753 3603 0
1 753 3573 0
1 -753 -3543 0
1 -753 3484 0
1 -768 -3529 0
1 -768 -3499 0
1 3543 -768 0
1 3543 708 0
1 -3543 753 0
1 -3543 723 0
1 -3558 3557 0
1 -3558 3559 0
1 3558 843 0
1 3558 -693 0
1 3558 -858 0
1 3558 797 0
1 -3573 -738 0
1 -3573 3588 0
1 3573 -723 0
1 -3588 -768 0
1 3588 -3587 0
1 -3588 708 0
1 -3588 -843 0
1 3588 753 0
1 782 3558 0
1 782 781 0
1 782 -3408 0
1 -782 3453 0
1 782 3484 0
1 782 797 0
1 797 -3558 0
1 812 3393 0
1 -812 811 0
1 -812 -3439 0
1 812 3514 0
1 827 -3393 0
1 827 -3529 0
1 827 3514 0
1 827 826 0
1 3484 903 0
1 -3484 872 0
1 -3484 812 0
1 -3484 -782 0
1 -3484 753 0
1 -3484 3483 0
1 3484 918 0
1 3484 -887 0
1 -3484 857 0
1 3484 827 0
1 -3484 797 0
1 3499 872 0
1 3499 -753 0
1 -3499 3484 0
1 3514 903 0
1 -3514 -873 0
1 -3514 -843 0
1 -3514 753 0
1 3529 782 0
1 -3529 753 0
1 3529 -858 0
1 -842 -3363 0
1 -842 -3499 0
1 -842 -3378 0
1 -842 -857 0
1 842 -3484 0
1 857 3424 0
1 -857 -3334 0
1 857 -3469 0
1 857 -3408 0
1 857 3378 0
1 857 856 0
1 -857 858 0
1 872 -3394 0
1 872 3364 0
1 872 -3409 0
1 887 -872 0
1 887 3409 0
1 887 3349 0
1 887 886 0
1 887 -3484 0
1 -887 -3454 0
1 3424 -932 0
1 -3424 872 0
1 3424 857 0
1 3439 872 0
1 3439 887 0
1 -3439 827 0
1 3454 -872 0
1 3454 -918 0
1 3454 857 0
1 -3469 933 0
1 -3469 903 0
1 3469 812 0
1 3469 887 0
1 3469 -857 0
1 902 3274 0
1 -902 3379 0
1 902 -917 0
1 -902 -3319 0
1 917 902 0
1 917 3439 0
1 -917 3349 0
1 -917 -918 0
1 -917 -3319 0
1 -932 -3424 0
1 -932 3394 0
1 932 -933 0
1 -932 3274 0
1 932 -3409 0
1 -947 3364 0
1 947 -3274 0
1 947 3409 0
1 -3364 -3379 0
1 -3379 947 0
1 3394 -902 0
1 3394 3409 0
1 3409 902 0
1 -3409 -872 0
1 3409 947 0
1 -604 3873 0
1 604 -3843 0
1 604 3752 0
1 604 619 0
1 -604 -3827 0
1 -604 -3797 0
1 604 3767 0
1 -619 -3782 0
1 -619 -3752 0
1 -619 618 0
1 -619 3858 0
1 -619 -3827 0
1 619 3797 0
1 -634 3873 0
1 634 -3888 0
1 -634 3858 0
1 -649 -3873 0
1 649 -648 0
1 649 3858 0
1 -3843 -3842 0
1 -3843 -694 0
1 3858 -3843 0
1 3858 3859 0
1 3858 -604 0
1 -3873 -3874 0
1 3888 -3887 0
1 3888 -604 0
1 -664 3813 0
1 -664 3798 0
1 679 -678 0
1 -679 3752 0
1 679 -3858 0
1 -679 -664 0
1 -679 -3737 0
1 694 -3843 0
1 -694 3783 0
1 694 3828 0
1 694 3768 0
1 694 -3708 0
1 -709 -708 0
1 709 3723 0
1 -709 -3858 0
1 709 -3828 0
1 709 -3738 0
1 -3783 3798 0
1 3783 664 0
1 3783 -634 0
1 3798 769 0
1 3798 649 0
1 3798 694 0
1 3798 -664 0
1 -3813 -3812 0
1 3813 -634 0
1 3828 679 0
1 3828 3827 0
1 3828 -694 0
1 -3828 634 0
1 -724 3753 0
1 724 3663 0
1 -739 -3783 0
1 -739 3633 0
1 -739 3708 0
1 -754 -3783 0
1 -754 753 0
1 -754 -3633 0
1 754 3738 0
1 -754 -3709 0
1 769 768 0
1 -769 -3694 0
1 769 3768 0
1 769 3738 0
1 3723 -769 0
1 3723 739 0
1 -3723 844 0
1 3723 -813 0
1 -3723 -694 0
1 3738 739 0
1 3738 709 0
1 3738 -813 0
1 3738 -754 0
1 -3738 3737 0
1 3753 -3752 0
1 -3753 3754 0
1 3753 -844 0
1 -3753 829 0
1 3753 799 0
1 3768 -3753 0
1 -3768 844 0
1 3768 3769 0
1 -783 3588 0
1 783 -3723 0
1 -783 -3679 0
1 -798 -3588 0
1 798 -783 0
1 798 -3664 0
1 798 -3573 0
1 -798 -797 0
1 813 -3649 0
1 813 -812 0
1 -813 814 0
1 -813 828 0
1 828 -3649 0
1 -828 3709 0
1 828 3723 0
1 828 813 0
1 -828 -3679 0
1 3664 904 0
1 -3664 843 0
1 3664 -919 0
1 3664 -858 0
1 3664 -828 0
1 -3679 -873 0
1 3679 843 0
1 -3679 813 0
1 3679 -783 0
1 3679 -919 0
1 -3679 -858 0
1 -3694 3709 0
1 3709 3708 0
1 3709 -813 0
1 3709 783 0
1 3709 -754 0
1 3709 828 0
1 843 -3634 0
1 843 3604 0
1 -843 3573 0
1 -858 3649 0
1 858 3529 0
1 858 3634 0
1 -858 3573 0
1 858 857 0
1 858 -3514 0
1 -858 859 0
1 -873 -3559 0
1 873 -3574 0
1 873 3514 0
1 888 -3649 0
1 888 -889 0
1 -3604 3619 0
1 3604 933 0
1 -3604 3603 0
1 -3619 3618 0
1 -3619 -903 0
1 3634 -3649 0
1 3634 -843 0
1 3634 813 0
1 3634 3633 0
1 3634 919 0
1 -3634 -888 0
1 -3649 -873 0
1 -3649 -949 0
1 3649 919 0
1 3649 -828 0
1 -903 3619 0
1 -903 3589 0
1 903 -902 0
1 -903 -3469 0
1 -903 -3514 0
1 903 3454 0
1 -918 -903 0
1 -918 3499 0
1 -918 -3469 0
1 -918 3574 0
1 918 919 0
1 918 -3544 0
1 -918 3514 0
1 933 3619 0
1 -933 -934 0
1 933 -3454 0
1 -948 3559 0
1 -948 -947 0
1 -3559 918 0
1 3559 -888 0
1 -3574 -873 0
1 -3589 873 0
1 -3589 918 0
1 784 3874 0
1 -784 3844 0
1 -784 -3813 0
1 784 -3768 0
1 784 -799 0
1 799 -3813 0
1 -799 -3889 0
1 -799 3828 0
1 -799 -798 0
1 -814 -3753 0
1 829 -3814 0
1 829 3784 0
1 3844 -3843 0
1 -3844 -844 0
1 -3844 814 0
1 3844 -889 0
1 -3844 -829 0
1 3844 -799 0
1 -3859 -3844 0
1 -3859 -874 0
1 -3859 844 0
1 3859 -889 0
1 -3874 799 0
1 -3889 784 0
1 3889 -3888 0
1 -844 -843 0
1 859 -3753 0
1 -859 -3723 0
1 859 3694 0
1 859 3859 0
1 859 -3738 0
1 859 858 0
1 -859 -3709 0
1 -874 3844 0
1 874 3814 0
1 -874 3784 0
1 874 -3724 0
1 874 -3739 0
1 -889 -874 0
1 889 -3724 0
1 -889 -3694 0
1 -889 3859 0
1 889 -3799 0
1 3784 -934 0
1 -3784 874 0
1 3784 -3799 0
1 3784 -844 0
1 -3784 -814 0
1 -3784 -919 0
1 -3784 -889 0
1 3784 -829 0
1 3799 874 0
1 -3799 814 0
1 -3799 859 0
1 -3814 844 0
1 -3814 -859 0
1 -3829 874 0
1 -904 3754 0
1 904 3799 0
1 -904 3724 0
1 -904 3694 0
1 -904 3634 0
1 904 -3739 0
1 -904 3679 0
1 -919 3754 0
1 919 -918 0
1 919 -3769 0
1 919 -3739 0
1 934 3754 0
1 934 3724 0
1 934 -949 0
1 -934 -3769 0
1 -949 -3754 0
1 949 -3724 0
1 -949 -3634 0
1 949 3769 0
1 3739 919 0
1 3754 -934 0
1 3754 874 0
1 -3769 -874 0
1 -3769 949 0
1 3769 -889 0
